instances/knapsack/discrete_knapsack_uncertainty/knapsack_120_17.lp
\ Model knapsack_120_17
\ LP format - for model browsing. Use MPS format to capture full model detail.
\ Signature: 0x89f048c0c90eaa9
Minimize
  - 32 x[0] - 17 x[1] - 34 x[2] - 22 x[3] - 64 x[4] - 75 x[5] - 88 x[6]
   - 22 x[7] - 9 x[8] - 89 x[9] - 17 x[10] - 13 x[11] - 49 x[12] - 12 x[13]
   - 5 x[14] - 98 x[15] - 4 x[16] - 32 x[17] - 9 x[18] - 40 x[19]
   - 68 x[20] - 17 x[21] - 46 x[22] - 66 x[23] - 63 x[24] - 97 x[25]
   - 82 x[26] - 90 x[27] - 28 x[28] - 7 x[29] - 11 x[30] - 18 x[31]
   - 70 x[32] - 5 x[33] - 70 x[34] - 51 x[35] - 15 x[36] - 77 x[37]
   - 17 x[38] - 38 x[39] - 46 x[40] - 44 x[41] - 28 x[42] - 37 x[43]
   - 41 x[44] - 89 x[45] - 47 x[46] - 3 x[47] - 31 x[48] - 96 x[49]
   - 29 x[50] - 65 x[51] - 57 x[52] - 15 x[53] - 74 x[54] - 4 x[55]
   - 17 x[56] - 22 x[57] - 10 x[58] - 17 x[59] - 98 x[60] - 44 x[61]
   - 32 x[62] - 88 x[63] - 45 x[64] - 75 x[65] - 87 x[66] - 16 x[67]
   - 3 x[68] - 28 x[69] - 3 x[70] - 37 x[71] - 35 x[72] - 92 x[73]
   - 25 x[74] - 52 x[75] - 12 x[76] - 55 x[77] - 14 x[78] - 66 x[79]
   - 93 x[80] - 92 x[81] - 40 x[82] - 80 x[83] - 63 x[84] - 91 x[85]
   - 44 x[86] - 25 x[87] - 98 x[88] - 25 x[89] - 20 x[90] - 56 x[91]
   - 12 x[92] - 47 x[93] - 2 x[94] - 17 x[95] - 95 x[96] - 94 x[97]
   - 87 x[98] - 95 x[99] - 83 x[100] - 44 x[101] - 9 x[102] - 40 x[103]
   - 81 x[104] - 29 x[105] - 92 x[106] - 63 x[107] - 12 x[108] - 23 x[109]
   - 64 x[110] - 20 x[111] - 48 x[112] - 34 x[113] - 60 x[114] - 51 x[115]
   - 61 x[116] - 87 x[117] - 16 x[118] - 45 x[119]
Subject To
 primal_upper: 78 x[0] + 54 x[1] + 100 x[2] + 9 x[3] + 14 x[4] + 92 x[5]
   + 87 x[6] + 86 x[7] + 47 x[8] + 84 x[9] + 30 x[10] + 85 x[11] + 90 x[12]
   + 82 x[13] + 35 x[14] + 43 x[15] + 23 x[16] + 6 x[17] + 19 x[18]
   + 80 x[19] + 19 x[20] + 14 x[21] + 26 x[22] + 21 x[23] + 39 x[24]
   + 10 x[25] + 48 x[26] + 74 x[27] + 20 x[28] + 85 x[29] + 100 x[30]
   + 26 x[31] + 54 x[32] + 95 x[33] + 6 x[34] + 47 x[35] + 2 x[36]
   + 83 x[37] + 26 x[38] + 93 x[39] + 65 x[40] + 16 x[41] + 44 x[42]
   + 8 x[43] + 9 x[44] + 65 x[45] + 92 x[46] + 76 x[47] + 97 x[48]
   + 62 x[49] + 93 x[50] + 30 x[51] + 55 x[52] + 42 x[53] + 59 x[54]
   + 6 x[55] + 91 x[56] + 33 x[57] + 38 x[58] + 12 x[59] + 51 x[60]
   + 45 x[61] + 38 x[62] + 13 x[63] + 58 x[64] + 54 x[65] + 39 x[66]
   + 53 x[67] + 78 x[68] + 44 x[69] + 8 x[70] + 20 x[71] + 92 x[72]
   + 81 x[73] + 42 x[74] + 87 x[75] + 5 x[76] + 77 x[77] + 83 x[78]
   + 85 x[79] + 84 x[80] + 96 x[81] + 85 x[82] + 8 x[83] + 88 x[84]
   + 60 x[85] + 98 x[86] + 34 x[87] + 32 x[88] + 53 x[89] + 3 x[90]
   + 55 x[91] + 15 x[92] + 22 x[93] + 10 x[94] + 75 x[95] + 27 x[96]
   + 27 x[97] + 70 x[98] + 22 x[99] + 27 x[100] + 86 x[101] + 4 x[102]
   + 42 x[103] + 59 x[104] + 52 x[105] + 61 x[106] + 41 x[107] + 41 x[108]
   + 67 x[109] + 37 x[110] + 13 x[111] + 75 x[112] + 59 x[113] + 27 x[114]
   + 13 x[115] + 41 x[116] + 11 x[117] + 7 x[118] + 47 x[119] + 7.8 r[0]
   + 5.4 r[1] + 10 r[2] + 0.9 r[3] + 1.4 r[4] + 9.2 r[5] + 8.7 r[6]
   + 8.6 r[7] + 4.7 r[8] + 8.4 r[9] + 3 r[10] + 8.5 r[11] + 9 r[12]
   + 8.2 r[13] + 3.5 r[14] + 4.3 r[15] + 2.3 r[16] + 0.6 r[17] + 1.9 r[18]
   + 8 r[19] + 1.9 r[20] + 1.4 r[21] + 2.6 r[22] + 2.1 r[23] + 3.9 r[24]
   + r[25] + 4.8 r[26] + 7.4 r[27] + 2 r[28] + 8.5 r[29] + 10 r[30]
   + 2.6 r[31] + 5.4 r[32] + 9.5 r[33] + 0.6 r[34] + 4.7 r[35] + 0.2 r[36]
   + 8.3 r[37] + 2.6 r[38] + 9.3 r[39] + 6.5 r[40] + 1.6 r[41] + 4.4 r[42]
   + 0.8 r[43] + 0.9 r[44] + 6.5 r[45] + 9.2 r[46] + 7.6 r[47] + 9.7 r[48]
   + 6.2 r[49] + 9.3 r[50] + 3 r[51] + 5.5 r[52] + 4.2 r[53] + 5.9 r[54]
   + 0.6 r[55] + 9.1 r[56] + 3.3 r[57] + 3.8 r[58] + 1.2 r[59] + 5.1 r[60]
   + 4.5 r[61] + 3.8 r[62] + 1.3 r[63] + 5.8 r[64] + 5.4 r[65] + 3.9 r[66]
   + 5.3 r[67] + 7.8 r[68] + 4.4 r[69] + 0.8 r[70] + 2 r[71] + 9.2 r[72]
   + 8.1 r[73] + 4.2 r[74] + 8.7 r[75] + 0.5 r[76] + 7.7 r[77] + 8.3 r[78]
   + 8.5 r[79] + 8.4 r[80] + 9.6 r[81] + 8.5 r[82] + 0.8 r[83] + 8.8 r[84]
   + 6 r[85] + 9.8 r[86] + 3.4 r[87] + 3.2 r[88] + 5.3 r[89] + 0.3 r[90]
   + 5.5 r[91] + 1.5 r[92] + 2.2 r[93] + r[94] + 7.5 r[95] + 2.7 r[96]
   + 2.7 r[97] + 7 r[98] + 2.2 r[99] + 2.7 r[100] + 8.6 r[101] + 0.4 r[102]
   + 4.2 r[103] + 5.9 r[104] + 5.2 r[105] + 6.1 r[106] + 4.1 r[107]
   + 4.1 r[108] + 6.7 r[109] + 3.7 r[110] + 1.3 r[111] + 7.5 r[112]
   + 5.9 r[113] + 2.7 r[114] + 1.3 r[115] + 4.1 r[116] + 1.1 r[117]
   + 0.7 r[118] + 4.7 r[119] <= 557
 primal_lower: 2.152046953137904 x[0] + 0.519643960533726 x[1]
   + 3.13743920913337 x[2] + 0.3610452302300273 x[3]
   + 3.211321090590842 x[4] + 4.017580613852996 x[5]
   + 4.887653346130281 x[6] + 2.105026500235854 x[7]
   + 3.940296241056065 x[8] + 4.725424683584829 x[9]
   + 4.534902434681138 x[10] + 4.635242041329854 x[11]
   + 2.082629549475056 x[12] + 1.945842235967051 x[13]
   + 3.421343947302111 x[14] + 1.427988669478653 x[15]
   + 4.490757274682839 x[16] + 4.440428456593861 x[17]
   + 0.5013493053650471 x[18] + 1.300184148708513 x[19]
   + 2.839982036992383 x[20] + 2.182753349212786 x[21]
   + 2.613676723971293 x[22] + 3.558612247154534 x[23]
   + 3.913126453390567 x[24] + 0.6808955566681945 x[25]
   + 1.632427641355249 x[26] + 3.166959571780508 x[27]
   + 0.1097997657768921 x[28] + 0.5558121448259189 x[29]
   + 3.942494527931296 x[30] + 4.567925064308193 x[31]
   + 4.848735672949508 x[32] + 0.0153342774519965 x[33]
   + 4.614500073709034 x[34] + 4.938991345727729 x[35]
   + 0.2884171362956494 x[36] + 2.746089244478287 x[37]
   + 4.538592258667972 x[38] + 2.166610273413465 x[39]
   + 0.7827173836104984 x[40] + 1.06049802775159 x[41]
   + 4.715514722457578 x[42] + 1.870482605384911 x[43]
   + 4.755912947339985 x[44] + 1.196338123303517 x[45]
   + 2.691459693741574 x[46] + 2.728574759406737 x[47]
   + 2.541522860070885 x[48] + 4.004307392215857 x[49]
   + 0.9151406224942431 x[50] + 1.61607252729953 x[51]
   + 4.418135445506588 x[52] + 1.363099811401702 x[53]
   + 1.032054438994862 x[54] + 3.82446254924651 x[55]
   + 4.419380685112729 x[56] + 2.132629203460457 x[57]
   + 3.562351650392064 x[58] + 0.1019223827337506 x[59]
   + 3.404215749196188 x[60] + 0.3609463358708589 x[61]
   + 2.496686303837779 x[62] + 4.713641258424912 x[63]
   + 4.084826245490661 x[64] + 4.507737161610114 x[65]
   + 2.88829168033031 x[66] + 4.859560991360139 x[67]
   + 2.637474571104941 x[68] + 4.685226402774409 x[69]
   + 1.429285237328624 x[70] + 1.482668177716278 x[71]
   + 0.7564301461752899 x[72] + 0.2603971966191239 x[73]
   + 1.616775584783604 x[74] + 3.967294540659835 x[75]
   + 2.205182081074919 x[76] + 4.787149672862912 x[77]
   + 1.239611135705761 x[78] + 3.565225095478893 x[79]
   + 1.370871184593922 x[80] + 1.842139372710202 x[81]
   + 2.077359235086466 x[82] + 3.758915743210037 x[83]
   + 3.436452187435474 x[84] + 3.525948043089164 x[85]
   + 0.9581853113327015 x[86] + 4.175115379557324 x[87]
   + 2.048385670875275 x[88] + 0.8401058402830112 x[89]
   + 4.747238581668786 x[90] + 1.669003307920139 x[91]
   + 0.0330648823944171 x[92] + 4.024438976959449 x[93]
   + 4.16493230700309 x[94] + 4.698990118712687 x[95]
   + 1.740241506561857 x[96] + 4.142849197981817 x[97]
   + 2.035245801519442 x[98] + 1.613750421725724 x[99]
   + 0.3114817797717315 x[100] + 0.2303282597992345 x[101]
   + 0.5264669975107829 x[102] + 3.046523680416518 x[103]
   + 4.415160940082835 x[104] + 1.028343105472257 x[105]
   + 1.224824053149574 x[106] + 3.295253800112209 x[107]
   + 3.695884964663579 x[108] + 3.710837029395178 x[109]
   + 3.079771952098726 x[110] + 4.387089941819937 x[111]
   + 3.32190466564414 x[112] + 2.503879789560733 x[113]
   + 3.380937821506383 x[114] + 3.080890226501224 x[115]
   + 0.3326391395153412 x[116] + 0.8145770340915742 x[117]
   + 1.483391594723655 x[118] + 2.262354674143053 x[119] + 45 u[0]
   + 37 u[1] + 35 u[2] + 68 u[3] + 61 u[4] + 55 u[5] + 58 u[6] + 81 u[7]
   + 62 u[8] + 31 u[9] + 53 u[10] + 32 u[11] + 85 u[12] + 5 u[13]
   + 22 u[14] + 54 u[15] + 46 u[16] + 9 u[17] + 70 u[18] + 99 u[19]
   + 78 u[20] + 45 u[21] + 41 u[22] + 16 u[23] + 62 u[24] + 81 u[25]
   + 35 u[26] + 73 u[27] + 87 u[28] + 68 u[29] + 11 u[30] + 69 u[31]
   + 9 u[32] + 98 u[33] + 65 u[34] + 2 u[35] + 81 u[36] + 22 u[37]
   + 13 u[38] + 52 u[39] + 68 u[40] + 31 u[41] + 67 u[42] + 7 u[43]
   + 44 u[44] + 20 u[45] + 23 u[46] + 27 u[47] + 80 u[48] + 85 u[49]
   + 72 u[50] + 97 u[51] + 14 u[52] + u[53] + 34 u[54] + 89 u[55]
   + 18 u[56] + 72 u[57] + u[58] + 87 u[59] + 74 u[60] + 60 u[61]
   + 53 u[62] + 36 u[63] + 77 u[64] + 5 u[65] + 26 u[66] + 68 u[67]
   + 25 u[68] + 67 u[69] + 59 u[70] + 67 u[71] + 47 u[72] + 100 u[73]
   + 77 u[74] + 66 u[75] + 80 u[76] + 8 u[77] + 2 u[78] + 16 u[79]
   + 67 u[80] + 67 u[81] + 72 u[82] + 43 u[83] + 43 u[84] + 71 u[85]
   + 81 u[86] + 89 u[87] + 71 u[88] + 92 u[89] + 38 u[90] + 66 u[91]
   + 42 u[92] + 33 u[93] + 5 u[94] + 98 u[95] + 46 u[96] + 86 u[97]
   + 77 u[98] + u[99] + 74 u[100] + 41 u[101] + 87 u[102] + 41 u[103]
   + 74 u[104] + 19 u[105] + 64 u[106] + 64 u[107] + 24 u[108] + 14 u[109]
   + 96 u[110] + 28 u[111] + 98 u[112] + 14 u[113] + 18 u[114] + 68 u[115]
   + 48 u[116] + 74 u[117] + 70 u[118] + 86 u[119] <= 18172
 mccormick1[0]: - u[0] + r[0] <= 0
 mccormick1[1]: - u[1] + r[1] <= 0
 mccormick1[2]: - u[2] + r[2] <= 0
 mccormick1[3]: - u[3] + r[3] <= 0
 mccormick1[4]: - u[4] + r[4] <= 0
 mccormick1[5]: - u[5] + r[5] <= 0
 mccormick1[6]: - u[6] + r[6] <= 0
 mccormick1[7]: - u[7] + r[7] <= 0
 mccormick1[8]: - u[8] + r[8] <= 0
 mccormick1[9]: - u[9] + r[9] <= 0
 mccormick1[10]: - u[10] + r[10] <= 0
 mccormick1[11]: - u[11] + r[11] <= 0
 mccormick1[12]: - u[12] + r[12] <= 0
 mccormick1[13]: - u[13] + r[13] <= 0
 mccormick1[14]: - u[14] + r[14] <= 0
 mccormick1[15]: - u[15] + r[15] <= 0
 mccormick1[16]: - u[16] + r[16] <= 0
 mccormick1[17]: - u[17] + r[17] <= 0
 mccormick1[18]: - u[18] + r[18] <= 0
 mccormick1[19]: - u[19] + r[19] <= 0
 mccormick1[20]: - u[20] + r[20] <= 0
 mccormick1[21]: - u[21] + r[21] <= 0
 mccormick1[22]: - u[22] + r[22] <= 0
 mccormick1[23]: - u[23] + r[23] <= 0
 mccormick1[24]: - u[24] + r[24] <= 0
 mccormick1[25]: - u[25] + r[25] <= 0
 mccormick1[26]: - u[26] + r[26] <= 0
 mccormick1[27]: - u[27] + r[27] <= 0
 mccormick1[28]: - u[28] + r[28] <= 0
 mccormick1[29]: - u[29] + r[29] <= 0
 mccormick1[30]: - u[30] + r[30] <= 0
 mccormick1[31]: - u[31] + r[31] <= 0
 mccormick1[32]: - u[32] + r[32] <= 0
 mccormick1[33]: - u[33] + r[33] <= 0
 mccormick1[34]: - u[34] + r[34] <= 0
 mccormick1[35]: - u[35] + r[35] <= 0
 mccormick1[36]: - u[36] + r[36] <= 0
 mccormick1[37]: - u[37] + r[37] <= 0
 mccormick1[38]: - u[38] + r[38] <= 0
 mccormick1[39]: - u[39] + r[39] <= 0
 mccormick1[40]: - u[40] + r[40] <= 0
 mccormick1[41]: - u[41] + r[41] <= 0
 mccormick1[42]: - u[42] + r[42] <= 0
 mccormick1[43]: - u[43] + r[43] <= 0
 mccormick1[44]: - u[44] + r[44] <= 0
 mccormick1[45]: - u[45] + r[45] <= 0
 mccormick1[46]: - u[46] + r[46] <= 0
 mccormick1[47]: - u[47] + r[47] <= 0
 mccormick1[48]: - u[48] + r[48] <= 0
 mccormick1[49]: - u[49] + r[49] <= 0
 mccormick1[50]: - u[50] + r[50] <= 0
 mccormick1[51]: - u[51] + r[51] <= 0
 mccormick1[52]: - u[52] + r[52] <= 0
 mccormick1[53]: - u[53] + r[53] <= 0
 mccormick1[54]: - u[54] + r[54] <= 0
 mccormick1[55]: - u[55] + r[55] <= 0
 mccormick1[56]: - u[56] + r[56] <= 0
 mccormick1[57]: - u[57] + r[57] <= 0
 mccormick1[58]: - u[58] + r[58] <= 0
 mccormick1[59]: - u[59] + r[59] <= 0
 mccormick1[60]: - u[60] + r[60] <= 0
 mccormick1[61]: - u[61] + r[61] <= 0
 mccormick1[62]: - u[62] + r[62] <= 0
 mccormick1[63]: - u[63] + r[63] <= 0
 mccormick1[64]: - u[64] + r[64] <= 0
 mccormick1[65]: - u[65] + r[65] <= 0
 mccormick1[66]: - u[66] + r[66] <= 0
 mccormick1[67]: - u[67] + r[67] <= 0
 mccormick1[68]: - u[68] + r[68] <= 0
 mccormick1[69]: - u[69] + r[69] <= 0
 mccormick1[70]: - u[70] + r[70] <= 0
 mccormick1[71]: - u[71] + r[71] <= 0
 mccormick1[72]: - u[72] + r[72] <= 0
 mccormick1[73]: - u[73] + r[73] <= 0
 mccormick1[74]: - u[74] + r[74] <= 0
 mccormick1[75]: - u[75] + r[75] <= 0
 mccormick1[76]: - u[76] + r[76] <= 0
 mccormick1[77]: - u[77] + r[77] <= 0
 mccormick1[78]: - u[78] + r[78] <= 0
 mccormick1[79]: - u[79] + r[79] <= 0
 mccormick1[80]: - u[80] + r[80] <= 0
 mccormick1[81]: - u[81] + r[81] <= 0
 mccormick1[82]: - u[82] + r[82] <= 0
 mccormick1[83]: - u[83] + r[83] <= 0
 mccormick1[84]: - u[84] + r[84] <= 0
 mccormick1[85]: - u[85] + r[85] <= 0
 mccormick1[86]: - u[86] + r[86] <= 0
 mccormick1[87]: - u[87] + r[87] <= 0
 mccormick1[88]: - u[88] + r[88] <= 0
 mccormick1[89]: - u[89] + r[89] <= 0
 mccormick1[90]: - u[90] + r[90] <= 0
 mccormick1[91]: - u[91] + r[91] <= 0
 mccormick1[92]: - u[92] + r[92] <= 0
 mccormick1[93]: - u[93] + r[93] <= 0
 mccormick1[94]: - u[94] + r[94] <= 0
 mccormick1[95]: - u[95] + r[95] <= 0
 mccormick1[96]: - u[96] + r[96] <= 0
 mccormick1[97]: - u[97] + r[97] <= 0
 mccormick1[98]: - u[98] + r[98] <= 0
 mccormick1[99]: - u[99] + r[99] <= 0
 mccormick1[100]: - u[100] + r[100] <= 0
 mccormick1[101]: - u[101] + r[101] <= 0
 mccormick1[102]: - u[102] + r[102] <= 0
 mccormick1[103]: - u[103] + r[103] <= 0
 mccormick1[104]: - u[104] + r[104] <= 0
 mccormick1[105]: - u[105] + r[105] <= 0
 mccormick1[106]: - u[106] + r[106] <= 0
 mccormick1[107]: - u[107] + r[107] <= 0
 mccormick1[108]: - u[108] + r[108] <= 0
 mccormick1[109]: - u[109] + r[109] <= 0
 mccormick1[110]: - u[110] + r[110] <= 0
 mccormick1[111]: - u[111] + r[111] <= 0
 mccormick1[112]: - u[112] + r[112] <= 0
 mccormick1[113]: - u[113] + r[113] <= 0
 mccormick1[114]: - u[114] + r[114] <= 0
 mccormick1[115]: - u[115] + r[115] <= 0
 mccormick1[116]: - u[116] + r[116] <= 0
 mccormick1[117]: - u[117] + r[117] <= 0
 mccormick1[118]: - u[118] + r[118] <= 0
 mccormick1[119]: - u[119] + r[119] <= 0
 mccormick2[0]: - x[0] + r[0] <= 0
 mccormick2[1]: - x[1] + r[1] <= 0
 mccormick2[2]: - x[2] + r[2] <= 0
 mccormick2[3]: - x[3] + r[3] <= 0
 mccormick2[4]: - x[4] + r[4] <= 0
 mccormick2[5]: - x[5] + r[5] <= 0
 mccormick2[6]: - x[6] + r[6] <= 0
 mccormick2[7]: - x[7] + r[7] <= 0
 mccormick2[8]: - x[8] + r[8] <= 0
 mccormick2[9]: - x[9] + r[9] <= 0
 mccormick2[10]: - x[10] + r[10] <= 0
 mccormick2[11]: - x[11] + r[11] <= 0
 mccormick2[12]: - x[12] + r[12] <= 0
 mccormick2[13]: - x[13] + r[13] <= 0
 mccormick2[14]: - x[14] + r[14] <= 0
 mccormick2[15]: - x[15] + r[15] <= 0
 mccormick2[16]: - x[16] + r[16] <= 0
 mccormick2[17]: - x[17] + r[17] <= 0
 mccormick2[18]: - x[18] + r[18] <= 0
 mccormick2[19]: - x[19] + r[19] <= 0
 mccormick2[20]: - x[20] + r[20] <= 0
 mccormick2[21]: - x[21] + r[21] <= 0
 mccormick2[22]: - x[22] + r[22] <= 0
 mccormick2[23]: - x[23] + r[23] <= 0
 mccormick2[24]: - x[24] + r[24] <= 0
 mccormick2[25]: - x[25] + r[25] <= 0
 mccormick2[26]: - x[26] + r[26] <= 0
 mccormick2[27]: - x[27] + r[27] <= 0
 mccormick2[28]: - x[28] + r[28] <= 0
 mccormick2[29]: - x[29] + r[29] <= 0
 mccormick2[30]: - x[30] + r[30] <= 0
 mccormick2[31]: - x[31] + r[31] <= 0
 mccormick2[32]: - x[32] + r[32] <= 0
 mccormick2[33]: - x[33] + r[33] <= 0
 mccormick2[34]: - x[34] + r[34] <= 0
 mccormick2[35]: - x[35] + r[35] <= 0
 mccormick2[36]: - x[36] + r[36] <= 0
 mccormick2[37]: - x[37] + r[37] <= 0
 mccormick2[38]: - x[38] + r[38] <= 0
 mccormick2[39]: - x[39] + r[39] <= 0
 mccormick2[40]: - x[40] + r[40] <= 0
 mccormick2[41]: - x[41] + r[41] <= 0
 mccormick2[42]: - x[42] + r[42] <= 0
 mccormick2[43]: - x[43] + r[43] <= 0
 mccormick2[44]: - x[44] + r[44] <= 0
 mccormick2[45]: - x[45] + r[45] <= 0
 mccormick2[46]: - x[46] + r[46] <= 0
 mccormick2[47]: - x[47] + r[47] <= 0
 mccormick2[48]: - x[48] + r[48] <= 0
 mccormick2[49]: - x[49] + r[49] <= 0
 mccormick2[50]: - x[50] + r[50] <= 0
 mccormick2[51]: - x[51] + r[51] <= 0
 mccormick2[52]: - x[52] + r[52] <= 0
 mccormick2[53]: - x[53] + r[53] <= 0
 mccormick2[54]: - x[54] + r[54] <= 0
 mccormick2[55]: - x[55] + r[55] <= 0
 mccormick2[56]: - x[56] + r[56] <= 0
 mccormick2[57]: - x[57] + r[57] <= 0
 mccormick2[58]: - x[58] + r[58] <= 0
 mccormick2[59]: - x[59] + r[59] <= 0
 mccormick2[60]: - x[60] + r[60] <= 0
 mccormick2[61]: - x[61] + r[61] <= 0
 mccormick2[62]: - x[62] + r[62] <= 0
 mccormick2[63]: - x[63] + r[63] <= 0
 mccormick2[64]: - x[64] + r[64] <= 0
 mccormick2[65]: - x[65] + r[65] <= 0
 mccormick2[66]: - x[66] + r[66] <= 0
 mccormick2[67]: - x[67] + r[67] <= 0
 mccormick2[68]: - x[68] + r[68] <= 0
 mccormick2[69]: - x[69] + r[69] <= 0
 mccormick2[70]: - x[70] + r[70] <= 0
 mccormick2[71]: - x[71] + r[71] <= 0
 mccormick2[72]: - x[72] + r[72] <= 0
 mccormick2[73]: - x[73] + r[73] <= 0
 mccormick2[74]: - x[74] + r[74] <= 0
 mccormick2[75]: - x[75] + r[75] <= 0
 mccormick2[76]: - x[76] + r[76] <= 0
 mccormick2[77]: - x[77] + r[77] <= 0
 mccormick2[78]: - x[78] + r[78] <= 0
 mccormick2[79]: - x[79] + r[79] <= 0
 mccormick2[80]: - x[80] + r[80] <= 0
 mccormick2[81]: - x[81] + r[81] <= 0
 mccormick2[82]: - x[82] + r[82] <= 0
 mccormick2[83]: - x[83] + r[83] <= 0
 mccormick2[84]: - x[84] + r[84] <= 0
 mccormick2[85]: - x[85] + r[85] <= 0
 mccormick2[86]: - x[86] + r[86] <= 0
 mccormick2[87]: - x[87] + r[87] <= 0
 mccormick2[88]: - x[88] + r[88] <= 0
 mccormick2[89]: - x[89] + r[89] <= 0
 mccormick2[90]: - x[90] + r[90] <= 0
 mccormick2[91]: - x[91] + r[91] <= 0
 mccormick2[92]: - x[92] + r[92] <= 0
 mccormick2[93]: - x[93] + r[93] <= 0
 mccormick2[94]: - x[94] + r[94] <= 0
 mccormick2[95]: - x[95] + r[95] <= 0
 mccormick2[96]: - x[96] + r[96] <= 0
 mccormick2[97]: - x[97] + r[97] <= 0
 mccormick2[98]: - x[98] + r[98] <= 0
 mccormick2[99]: - x[99] + r[99] <= 0
 mccormick2[100]: - x[100] + r[100] <= 0
 mccormick2[101]: - x[101] + r[101] <= 0
 mccormick2[102]: - x[102] + r[102] <= 0
 mccormick2[103]: - x[103] + r[103] <= 0
 mccormick2[104]: - x[104] + r[104] <= 0
 mccormick2[105]: - x[105] + r[105] <= 0
 mccormick2[106]: - x[106] + r[106] <= 0
 mccormick2[107]: - x[107] + r[107] <= 0
 mccormick2[108]: - x[108] + r[108] <= 0
 mccormick2[109]: - x[109] + r[109] <= 0
 mccormick2[110]: - x[110] + r[110] <= 0
 mccormick2[111]: - x[111] + r[111] <= 0
 mccormick2[112]: - x[112] + r[112] <= 0
 mccormick2[113]: - x[113] + r[113] <= 0
 mccormick2[114]: - x[114] + r[114] <= 0
 mccormick2[115]: - x[115] + r[115] <= 0
 mccormick2[116]: - x[116] + r[116] <= 0
 mccormick2[117]: - x[117] + r[117] <= 0
 mccormick2[118]: - x[118] + r[118] <= 0
 mccormick2[119]: - x[119] + r[119] <= 0
 mccormick3[0]: x[0] + u[0] - r[0] <= 1
 mccormick3[1]: x[1] + u[1] - r[1] <= 1
 mccormick3[2]: x[2] + u[2] - r[2] <= 1
 mccormick3[3]: x[3] + u[3] - r[3] <= 1
 mccormick3[4]: x[4] + u[4] - r[4] <= 1
 mccormick3[5]: x[5] + u[5] - r[5] <= 1
 mccormick3[6]: x[6] + u[6] - r[6] <= 1
 mccormick3[7]: x[7] + u[7] - r[7] <= 1
 mccormick3[8]: x[8] + u[8] - r[8] <= 1
 mccormick3[9]: x[9] + u[9] - r[9] <= 1
 mccormick3[10]: x[10] + u[10] - r[10] <= 1
 mccormick3[11]: x[11] + u[11] - r[11] <= 1
 mccormick3[12]: x[12] + u[12] - r[12] <= 1
 mccormick3[13]: x[13] + u[13] - r[13] <= 1
 mccormick3[14]: x[14] + u[14] - r[14] <= 1
 mccormick3[15]: x[15] + u[15] - r[15] <= 1
 mccormick3[16]: x[16] + u[16] - r[16] <= 1
 mccormick3[17]: x[17] + u[17] - r[17] <= 1
 mccormick3[18]: x[18] + u[18] - r[18] <= 1
 mccormick3[19]: x[19] + u[19] - r[19] <= 1
 mccormick3[20]: x[20] + u[20] - r[20] <= 1
 mccormick3[21]: x[21] + u[21] - r[21] <= 1
 mccormick3[22]: x[22] + u[22] - r[22] <= 1
 mccormick3[23]: x[23] + u[23] - r[23] <= 1
 mccormick3[24]: x[24] + u[24] - r[24] <= 1
 mccormick3[25]: x[25] + u[25] - r[25] <= 1
 mccormick3[26]: x[26] + u[26] - r[26] <= 1
 mccormick3[27]: x[27] + u[27] - r[27] <= 1
 mccormick3[28]: x[28] + u[28] - r[28] <= 1
 mccormick3[29]: x[29] + u[29] - r[29] <= 1
 mccormick3[30]: x[30] + u[30] - r[30] <= 1
 mccormick3[31]: x[31] + u[31] - r[31] <= 1
 mccormick3[32]: x[32] + u[32] - r[32] <= 1
 mccormick3[33]: x[33] + u[33] - r[33] <= 1
 mccormick3[34]: x[34] + u[34] - r[34] <= 1
 mccormick3[35]: x[35] + u[35] - r[35] <= 1
 mccormick3[36]: x[36] + u[36] - r[36] <= 1
 mccormick3[37]: x[37] + u[37] - r[37] <= 1
 mccormick3[38]: x[38] + u[38] - r[38] <= 1
 mccormick3[39]: x[39] + u[39] - r[39] <= 1
 mccormick3[40]: x[40] + u[40] - r[40] <= 1
 mccormick3[41]: x[41] + u[41] - r[41] <= 1
 mccormick3[42]: x[42] + u[42] - r[42] <= 1
 mccormick3[43]: x[43] + u[43] - r[43] <= 1
 mccormick3[44]: x[44] + u[44] - r[44] <= 1
 mccormick3[45]: x[45] + u[45] - r[45] <= 1
 mccormick3[46]: x[46] + u[46] - r[46] <= 1
 mccormick3[47]: x[47] + u[47] - r[47] <= 1
 mccormick3[48]: x[48] + u[48] - r[48] <= 1
 mccormick3[49]: x[49] + u[49] - r[49] <= 1
 mccormick3[50]: x[50] + u[50] - r[50] <= 1
 mccormick3[51]: x[51] + u[51] - r[51] <= 1
 mccormick3[52]: x[52] + u[52] - r[52] <= 1
 mccormick3[53]: x[53] + u[53] - r[53] <= 1
 mccormick3[54]: x[54] + u[54] - r[54] <= 1
 mccormick3[55]: x[55] + u[55] - r[55] <= 1
 mccormick3[56]: x[56] + u[56] - r[56] <= 1
 mccormick3[57]: x[57] + u[57] - r[57] <= 1
 mccormick3[58]: x[58] + u[58] - r[58] <= 1
 mccormick3[59]: x[59] + u[59] - r[59] <= 1
 mccormick3[60]: x[60] + u[60] - r[60] <= 1
 mccormick3[61]: x[61] + u[61] - r[61] <= 1
 mccormick3[62]: x[62] + u[62] - r[62] <= 1
 mccormick3[63]: x[63] + u[63] - r[63] <= 1
 mccormick3[64]: x[64] + u[64] - r[64] <= 1
 mccormick3[65]: x[65] + u[65] - r[65] <= 1
 mccormick3[66]: x[66] + u[66] - r[66] <= 1
 mccormick3[67]: x[67] + u[67] - r[67] <= 1
 mccormick3[68]: x[68] + u[68] - r[68] <= 1
 mccormick3[69]: x[69] + u[69] - r[69] <= 1
 mccormick3[70]: x[70] + u[70] - r[70] <= 1
 mccormick3[71]: x[71] + u[71] - r[71] <= 1
 mccormick3[72]: x[72] + u[72] - r[72] <= 1
 mccormick3[73]: x[73] + u[73] - r[73] <= 1
 mccormick3[74]: x[74] + u[74] - r[74] <= 1
 mccormick3[75]: x[75] + u[75] - r[75] <= 1
 mccormick3[76]: x[76] + u[76] - r[76] <= 1
 mccormick3[77]: x[77] + u[77] - r[77] <= 1
 mccormick3[78]: x[78] + u[78] - r[78] <= 1
 mccormick3[79]: x[79] + u[79] - r[79] <= 1
 mccormick3[80]: x[80] + u[80] - r[80] <= 1
 mccormick3[81]: x[81] + u[81] - r[81] <= 1
 mccormick3[82]: x[82] + u[82] - r[82] <= 1
 mccormick3[83]: x[83] + u[83] - r[83] <= 1
 mccormick3[84]: x[84] + u[84] - r[84] <= 1
 mccormick3[85]: x[85] + u[85] - r[85] <= 1
 mccormick3[86]: x[86] + u[86] - r[86] <= 1
 mccormick3[87]: x[87] + u[87] - r[87] <= 1
 mccormick3[88]: x[88] + u[88] - r[88] <= 1
 mccormick3[89]: x[89] + u[89] - r[89] <= 1
 mccormick3[90]: x[90] + u[90] - r[90] <= 1
 mccormick3[91]: x[91] + u[91] - r[91] <= 1
 mccormick3[92]: x[92] + u[92] - r[92] <= 1
 mccormick3[93]: x[93] + u[93] - r[93] <= 1
 mccormick3[94]: x[94] + u[94] - r[94] <= 1
 mccormick3[95]: x[95] + u[95] - r[95] <= 1
 mccormick3[96]: x[96] + u[96] - r[96] <= 1
 mccormick3[97]: x[97] + u[97] - r[97] <= 1
 mccormick3[98]: x[98] + u[98] - r[98] <= 1
 mccormick3[99]: x[99] + u[99] - r[99] <= 1
 mccormick3[100]: x[100] + u[100] - r[100] <= 1
 mccormick3[101]: x[101] + u[101] - r[101] <= 1
 mccormick3[102]: x[102] + u[102] - r[102] <= 1
 mccormick3[103]: x[103] + u[103] - r[103] <= 1
 mccormick3[104]: x[104] + u[104] - r[104] <= 1
 mccormick3[105]: x[105] + u[105] - r[105] <= 1
 mccormick3[106]: x[106] + u[106] - r[106] <= 1
 mccormick3[107]: x[107] + u[107] - r[107] <= 1
 mccormick3[108]: x[108] + u[108] - r[108] <= 1
 mccormick3[109]: x[109] + u[109] - r[109] <= 1
 mccormick3[110]: x[110] + u[110] - r[110] <= 1
 mccormick3[111]: x[111] + u[111] - r[111] <= 1
 mccormick3[112]: x[112] + u[112] - r[112] <= 1
 mccormick3[113]: x[113] + u[113] - r[113] <= 1
 mccormick3[114]: x[114] + u[114] - r[114] <= 1
 mccormick3[115]: x[115] + u[115] - r[115] <= 1
 mccormick3[116]: x[116] + u[116] - r[116] <= 1
 mccormick3[117]: x[117] + u[117] - r[117] <= 1
 mccormick3[118]: x[118] + u[118] - r[118] <= 1
 mccormick3[119]: x[119] + u[119] - r[119] <= 1
Bounds
Binaries
 x[0] x[1] x[2] x[3] x[4] x[5] x[6] x[7] x[8] x[9] x[10] x[11] x[12] x[13]
 x[14] x[15] x[16] x[17] x[18] x[19] x[20] x[21] x[22] x[23] x[24] x[25]
 x[26] x[27] x[28] x[29] x[30] x[31] x[32] x[33] x[34] x[35] x[36] x[37]
 x[38] x[39] x[40] x[41] x[42] x[43] x[44] x[45] x[46] x[47] x[48] x[49]
 x[50] x[51] x[52] x[53] x[54] x[55] x[56] x[57] x[58] x[59] x[60] x[61]
 x[62] x[63] x[64] x[65] x[66] x[67] x[68] x[69] x[70] x[71] x[72] x[73]
 x[74] x[75] x[76] x[77] x[78] x[79] x[80] x[81] x[82] x[83] x[84] x[85]
 x[86] x[87] x[88] x[89] x[90] x[91] x[92] x[93] x[94] x[95] x[96] x[97]
 x[98] x[99] x[100] x[101] x[102] x[103] x[104] x[105] x[106] x[107] x[108]
 x[109] x[110] x[111] x[112] x[113] x[114] x[115] x[116] x[117] x[118]
 x[119] u[0] u[1] u[2] u[3] u[4] u[5] u[6] u[7] u[8] u[9] u[10] u[11] u[12]
 u[13] u[14] u[15] u[16] u[17] u[18] u[19] u[20] u[21] u[22] u[23] u[24]
 u[25] u[26] u[27] u[28] u[29] u[30] u[31] u[32] u[33] u[34] u[35] u[36]
 u[37] u[38] u[39] u[40] u[41] u[42] u[43] u[44] u[45] u[46] u[47] u[48]
 u[49] u[50] u[51] u[52] u[53] u[54] u[55] u[56] u[57] u[58] u[59] u[60]
 u[61] u[62] u[63] u[64] u[65] u[66] u[67] u[68] u[69] u[70] u[71] u[72]
 u[73] u[74] u[75] u[76] u[77] u[78] u[79] u[80] u[81] u[82] u[83] u[84]
 u[85] u[86] u[87] u[88] u[89] u[90] u[91] u[92] u[93] u[94] u[95] u[96]
 u[97] u[98] u[99] u[100] u[101] u[102] u[103] u[104] u[105] u[106] u[107]
 u[108] u[109] u[110] u[111] u[112] u[113] u[114] u[115] u[116] u[117]
 u[118] u[119] r[0] r[1] r[2] r[3] r[4] r[5] r[6] r[7] r[8] r[9] r[10]
 r[11] r[12] r[13] r[14] r[15] r[16] r[17] r[18] r[19] r[20] r[21] r[22]
 r[23] r[24] r[25] r[26] r[27] r[28] r[29] r[30] r[31] r[32] r[33] r[34]
 r[35] r[36] r[37] r[38] r[39] r[40] r[41] r[42] r[43] r[44] r[45] r[46]
 r[47] r[48] r[49] r[50] r[51] r[52] r[53] r[54] r[55] r[56] r[57] r[58]
 r[59] r[60] r[61] r[62] r[63] r[64] r[65] r[66] r[67] r[68] r[69] r[70]
 r[71] r[72] r[73] r[74] r[75] r[76] r[77] r[78] r[79] r[80] r[81] r[82]
 r[83] r[84] r[85] r[86] r[87] r[88] r[89] r[90] r[91] r[92] r[93] r[94]
 r[95] r[96] r[97] r[98] r[99] r[100] r[101] r[102] r[103] r[104] r[105]
 r[106] r[107] r[108] r[109] r[110] r[111] r[112] r[113] r[114] r[115]
 r[116] r[117] r[118] r[119]
End
