instances/knapsack/discrete_knapsack_uncertainty/knapsack_120_17.kp
41390
120
557

78 7.8 32
54 5.4 17
100 10.0 34
9 0.9 22
14 1.4 64
92 9.2 75
87 8.7 88
86 8.6 22
47 4.7 9
84 8.4 89
30 3.0 17
85 8.5 13
90 9.0 49
82 8.2 12
35 3.5 5
43 4.3 98
23 2.3 4
6 0.6 32
19 1.9 9
80 8.0 40
19 1.9 68
14 1.4 17
26 2.6 46
21 2.1 66
39 3.9 63
10 1.0 97
48 4.8 82
74 7.4 90
20 2.0 28
85 8.5 7
100 10.0 11
26 2.6 18
54 5.4 70
95 9.5 5
6 0.6 70
47 4.7 51
2 0.2 15
83 8.3 77
26 2.6 17
93 9.3 38
65 6.5 46
16 1.6 44
44 4.4 28
8 0.8 37
9 0.9 41
65 6.5 89
92 9.2 47
76 7.6 3
97 9.7 31
62 6.2 96
93 9.3 29
30 3.0 65
55 5.5 57
42 4.2 15
59 5.9 74
6 0.6 4
91 9.1 17
33 3.3 22
38 3.8 10
12 1.2 17
51 5.1 98
45 4.5 44
38 3.8 32
13 1.3 88
58 5.8 45
54 5.4 75
39 3.9 87
53 5.3 16
78 7.8 3
44 4.4 28
8 0.8 3
20 2.0 37
92 9.2 35
81 8.1 92
42 4.2 25
87 8.7 52
5 0.5 12
77 7.7 55
83 8.3 14
85 8.5 66
84 8.4 93
96 9.6 92
85 8.5 40
8 0.8 80
88 8.8 63
60 6.0 91
98 9.8 44
34 3.4 25
32 3.2 98
53 5.3 25
3 0.3 20
55 5.5 56
15 1.5 12
22 2.2 47
10 1.0 2
75 7.5 17
27 2.7 95
27 2.7 94
70 7.0 87
22 2.2 95
27 2.7 83
86 8.6 44
4 0.4 9
42 4.2 40
59 5.9 81
52 5.2 29
61 6.1 92
41 4.1 63
41 4.1 12
67 6.7 23
37 3.7 64
13 1.3 20
75 7.5 48
59 5.9 34
27 2.7 60
13 1.3 51
41 4.1 61
11 1.1 87
7 0.7 16
47 4.7 45

18172
595

[2.1520469531379036 0.519643960533726 3.13743920913337 0.3610452302300273 3.211321090590842 4.017580613852996 4.887653346130281 2.105026500235854 3.940296241056065 4.725424683584829 4.534902434681138 4.635242041329854 2.0826295494750564 1.945842235967051 3.421343947302111 1.4279886694786532 4.490757274682839 4.440428456593861 0.5013493053650471 1.300184148708513 2.839982036992383 2.1827533492127857 2.613676723971293 3.5586122471545343 3.9131264533905674 0.6808955566681945 1.6324276413552488 3.166959571780508 0.10979976577689213 0.5558121448259189 3.942494527931296 4.567925064308193 4.848735672949508 0.015334277451996487 4.614500073709034 4.938991345727729 0.2884171362956494 2.746089244478287 4.538592258667972 2.1666102734134647 0.7827173836104984 1.0604980277515903 4.715514722457578 1.870482605384911 4.755912947339985 1.1963381233035166 2.6914596937415736 2.728574759406737 2.541522860070885 4.004307392215857 0.9151406224942431 1.61607252729953 4.418135445506588 1.3630998114017023 1.0320544389948618 3.8244625492465096 4.419380685112729 2.1326292034604566 3.562351650392064 0.10192238273375062 3.4042157491961884 0.36094633587085895 2.496686303837779 4.713641258424912 4.084826245490661 4.507737161610114 2.8882916803303096 4.859560991360139 2.637474571104941 4.685226402774409 1.429285237328624 1.4826681777162776 0.7564301461752899 0.2603971966191239 1.6167755847836043 3.967294540659835 2.2051820810749194 4.787149672862912 1.2396111357057613 3.5652250954788927 1.3708711845939217 1.8421393727102018 2.077359235086466 3.758915743210037 3.436452187435474 3.525948043089164 0.9581853113327015 4.175115379557324 2.0483856708752755 0.8401058402830112 4.747238581668786 1.6690033079201387 0.03306488239441712 4.024438976959449 4.16493230700309 4.698990118712687 1.7402415065618566 4.142849197981817 2.035245801519442 1.6137504217257244 0.3114817797717315 0.23032825979923452 0.5264669975107829 3.046523680416518 4.415160940082835 1.028343105472257 1.2248240531495735 3.2952538001122087 3.695884964663579 3.710837029395178 3.079771952098726 4.387089941819937 3.32190466564414 2.503879789560733 3.3809378215063832 3.080890226501224 0.33263913951534124 0.8145770340915742 1.4833915947236553 2.262354674143053]

[45 37 35 68 61 55 58 81 62 31 53 32 85 5 22 54 46 9 70 99 78 45 41 16 62 81 35 73 87 68 11 69 9 98 65 2 81 22 13 52 68 31 67 7 44 20 23 27 80 85 72 97 14 1 34 89 18 72 1 87 74 60 53 36 77 5 26 68 25 67 59 67 47 100 77 66 80 8 2 16 67 67 72 43 43 71 81 89 71 92 38 66 42 33 5 98 46 86 77 1 74 41 87 41 74 19 64 64 24 14 96 28 98 14 18 68 48 74 70 86]
